GLPSOL--GLPK LP/MIP Solver 5.0
Parameter(s) specified in the command line:
 --lp ../modeles/3_244.lp --log 3_244.log
Reading problem data from '../modeles/3_244.lp'...
745 rows, 1470 columns, 5133 non-zeros
732 integer variables, all of which are binary
2224 lines were read
GLPK Integer Optimizer 5.0
745 rows, 1470 columns, 5133 non-zeros
732 integer variables, all of which are binary
Preprocessing...
726 constraint coefficient(s) were reduced
745 rows, 1467 columns, 5130 non-zeros
732 integer variables, all of which are binary
Scaling...
 A: min|aij| =  2.687e-04  max|aij| =  4.000e+00  ratio =  1.488e+04
GM: min|aij| =  9.054e-02  max|aij| =  1.105e+01  ratio =  1.220e+02
EQ: min|aij| =  8.197e-03  max|aij| =  1.000e+00  ratio =  1.220e+02
2N: min|aij| =  7.812e-03  max|aij| =  1.759e+00  ratio =  2.251e+02
Constructing initial basis...
Size of triangular part is 745
Solving LP relaxation...
GLPK Simplex Optimizer 5.0
745 rows, 1467 columns, 5130 non-zeros
      0: obj =   6.000000000e+00 inf =   1.450e+01 (7)
     50: obj =   4.314417229e-01 inf =   0.000e+00 (0)
*   196: obj =  -1.731932579e+00 inf =   1.074e-15 (0)
OPTIMAL LP SOLUTION FOUND
Integer optimization begins...
Long-step dual simplex will be used
+   196: mip =     not found yet >=              -inf        (1; 0)
+   242: >>>>>  -1.731765265e+00 >=  -1.731932579e+00 < 0.1% (42; 0)
+   517: >>>>>  -1.731932579e+00 >=  -1.731932579e+00 < 0.1% (2; 79)
+   517: mip =  -1.731932579e+00 >=     tree is empty   0.0% (0; 83)
INTEGER OPTIMAL SOLUTION FOUND
Time used:   0.3 secs
Memory used: 2.2 Mb (2314859 bytes)
